COLUMNS

passenger_count
pickup_ID
dropoff_ID
request_time_sec
pickup_district
dropoff_district
LDuals
IDuals
vehicle_ID
pick_position
drop_position

REQUESTS_INFO
3      1035      1055      29340     84        84        163       163       9         1         2         
1      456       498       29341     52        52        128       128       31        1         3         
2      297       368       29367     277       299       191       191       120       1         2         
1      220       10        29310     87        98        221       221       128       1         2         
3      273       817       29350     206       290       176       176       134       1         2         
3      728       633       29350     290       189       119       119       141       1         2         
2      840       573       29365     290       189       124       124       168       1         2         
3      503       621       29347     52        280       121       121       171       1         3         
1      337       314       29363     277       119       149       149       180       1         2         
1      1107      1107      29354     291       291       120       120       186       1         2         
1      816       719       29322     290       189       172       172       368       1         2         
1      354       526       29347     119       52        173       173       376       1         2         
1      527       189       29368     52        286       132       132       413       1         2         
3      398       315       29344     168       277       164       164       420       1         2         
1      194       34        29338     207       98        158       158       506       1         2         
1      907       233       29323     290       206       180       180       519       1         2         
1      309       417       29349     127       100       160       160       575       1         2         
1      815       555       29358     290       199       133       133       594       1         3         
3      812       674       29357     290       189       99        99        607       1         2         
2      858       171       29351     290       286       132       132       642       1         2         
1      1088      675       29343     291       189       161       161       644       1         2         
1      392       627       29361     52        189       119       119       664       1         2         
1      549       511       29362     52        199       120       120       690       1         2         
1      929       1218      29364     290       84        165       165       695       1         2         
1      841       602       29359     290       189       130       130       713       1         2         
1      645       117       29370     280       286       0         0         0         0         0         
1      396       651       29370     119       189       0         0         0         0         0         
1      465       605       29370     199       189       0         0         0         0         0         
1      947       334       29370     290       119       0         0         0         0         0         
3      980       673       29371     291       189       0         0         0         0         0         
3      980       673       29371     291       189       0         0         0         0         0         
1      598       579       29371     189       189       0         0         0         0         0         
1      574       647       29371     189       280       0         0         0         0         0         
1      1091      79        29371     291       98        0         0         0         0         0         
1      651       718       29372     189       189       0         0         0         0         0         
1      905       459       29372     290       189       0         0         0         0         0         
3      581       527       29373     189       52        0         0         0         0         0         
1      722       116       29373     290       9         0         0         0         0         0         
3      581       527       29373     189       52        0         0         0         0         0         
1      374       904       29373     119       290       0         0         0         0         0         
1      654       45        29375     189       98        0         0         0         0         0         
1      1319      687       29375     129       131       0         0         0         0         0         
1      662       485       29375     131       189       0         0         0         0         0         
1      760       618       29376     291       131       0         0         0         0         0         
1      927       851       29376     290       291       0         0         0         0         0         
1      488       928       29376     199       290       0         0         0         0         0         
1      22        371       29376     98        52        0         0         0         0         0         
1      458       601       29376     52        189       0         0         0         0         0         
1      457       399       29377     52        168       0         0         0         0         0         
1      524       217       29377     52        87        0         0         0         0         0         
1      549       573       29378     52        189       0         0         0         0         0         
3      665       717       29379     131       189       0         0         0         0         0         
3      665       717       29379     131       189       0         0         0         0         0         
1      726       651       29380     290       189       0         0         0         0         0         
1      928       925       29380     290       290       0         0         0         0         0         
2      373       641       29380     119       131       0         0         0         0         0         
1      556       357       29380     199       277       0         0         0         0         0         
1      689       805       29380     131       291       0         0         0         0         0         
1      772       444       29381     290       168       0         0         0         0         0         
1      527       533       29381     52        199       0         0         0         0         0         
1      696       531       29382     189       189       0         0         0         0         0         
1      584       721       29382     189       290       0         0         0         0         0         
3      666       643       29382     131       131       0         0         0         0         0         
2      666       643       29382     131       131       0         0         0         0         0         
1      828       849       29382     291       291       0         0         0         0         0         
2      760       756       29383     291       131       0         0         0         0         0         
1      549       772       29383     52        290       0         0         0         0         0         
1      354       45        29384     119       98        0         0         0         0         0         
1      722       479       29384     290       52        0         0         0         0         0         
3      679       1378      29384     290       129       0         0         0         0         0         
2      679       1378      29384     290       129       0         0         0         0         0         
1      620       716       29385     131       189       0         0         0         0         0         
2      486       597       29385     199       131       0         0         0         0         0         
1      504       79        29386     52        98        0         0         0         0         0         
3      620       695       29386     131       189       0         0         0         0         0         
3      620       695       29386     131       189       0         0         0         0         0         
1      794       1218      29387     290       84        0         0         0         0         0         
1      581       526       29387     189       52        0         0         0         0         0         
1      623       828       29388     280       291       0         0         0         0         0         
1      418       605       29388     168       189       0         0         0         0         0         
1      414       436       29389     100       100       0         0         0         0         0         
3      827       697       29389     291       189       0         0         0         0         0         
3      827       697       29389     291       189       0         0         0         0         0         
3      663       647       29390     131       280       0         0         0         0         0         
1      665       505       29390     131       52        0         0         0         0         0         
2      663       647       29390     131       280       0         0         0         0         0         
2      991       904       29391     290       290       0         0         0         0         0         
1      971       48        29391     290       98        0         0         0         0         0         
1      417       698       29392     100       189       0         0         0         0         0         
1      652       771       29392     189       290       0         0         0         0         0         
1      826       719       29392     291       189       0         0         0         0         0         
1      1001      771       29392     291       290       0         0         0         0         0         
1      216       421       29392     178       168       0         0         0         0         0         
2      737       527       29393     189       52        0         0         0         0         0         
1      937       893       29394     291       291       0         0         0         0         0         
1      549       671       29394     52        280       0         0         0         0         0         
4      354       558       29395     119       189       0         0         0         0         0         
1      415       99        29395     100       286       0         0         0         0         0         
1      858       904       29395     290       290       0         0         0         0         0         
1      716       694       29396     189       189       0         0         0         0         0         
1      333       97        29397     119       9         0         0         0         0         0         
1      608       748       29397     189       290       0         0         0         0         0         
3      296       463       29397     277       168       0         0         0         0         0         
3      296       463       29397     277       168       0         0         0         0         0         
1      1054      1188      29399     84        192       0         0         0         0         0         
1      883       968       29399     290       290       0         0         0         0         0         
1      513       558       29399     199       189       0         0         0         0         0         
